* #variable= 80 #constraint= 440 #product= 1280 sizeproduct= 80
min: 1 x2 x1 1 x4 x3 1 x6 x5 1 x8 x7 1 x10 x9 1 x12 x11 1 x14 x13 1 x16 x15 1 x18 x17 1 x20 x19 1 x22 x21 1 x24 x23 1 x26 x25 1 x28 x27 1 x30 x29 1 x32 x31 1 x34 x33 1 x36 x35 1 x38 x37 1 x40 x39 1 x42 x41 1 x44 x43 1 x46 x45 1 x48 x47 1 x50 x49 1 x52 x51 1 x54 x53 1 x56 x55 1 x58 x57 1 x60 x59 1 x62 x61 1 x64 x63 1 x66 x65 1 x68 x67 1 x70 x69 1 x72 x71 1 x74 x73 1 x76 x75 1 x78 x77 1 x80 x79 ;
1 x2 ~x1 1 x2 x1 >= 1;
1 x4 ~x3 1 x4 x3 >= 1;
1 x6 ~x5 1 x6 x5 >= 1;
1 x8 ~x7 1 x8 x7 >= 1;
1 x10 ~x9 1 x10 x9 >= 1;
1 x12 ~x11 1 x12 x11 >= 1;
1 x14 ~x13 1 x14 x13 >= 1;
1 x16 ~x15 1 x16 x15 >= 1;
1 x18 ~x17 1 x18 x17 >= 1;
1 x20 ~x19 1 x20 x19 >= 1;
1 x22 ~x21 1 x22 x21 >= 1;
1 x24 ~x23 1 x24 x23 >= 1;
1 x26 ~x25 1 x26 x25 >= 1;
1 x28 ~x27 1 x28 x27 >= 1;
1 x30 ~x29 1 x30 x29 >= 1;
1 x32 ~x31 1 x32 x31 >= 1;
1 x34 ~x33 1 x34 x33 >= 1;
1 x36 ~x35 1 x36 x35 >= 1;
1 x38 ~x37 1 x38 x37 >= 1;
1 x40 ~x39 1 x40 x39 >= 1;
1 x42 ~x41 1 x42 x41 >= 1;
1 x44 ~x43 1 x44 x43 >= 1;
1 x46 ~x45 1 x46 x45 >= 1;
1 x48 ~x47 1 x48 x47 >= 1;
1 x50 ~x49 1 x50 x49 >= 1;
1 x52 ~x51 1 x52 x51 >= 1;
1 x54 ~x53 1 x54 x53 >= 1;
1 x56 ~x55 1 x56 x55 >= 1;
1 x58 ~x57 1 x58 x57 >= 1;
1 x60 ~x59 1 x60 x59 >= 1;
1 x62 ~x61 1 x62 x61 >= 1;
1 x64 ~x63 1 x64 x63 >= 1;
1 x66 ~x65 1 x66 x65 >= 1;
1 x68 ~x67 1 x68 x67 >= 1;
1 x70 ~x69 1 x70 x69 >= 1;
1 x72 ~x71 1 x72 x71 >= 1;
1 x74 ~x73 1 x74 x73 >= 1;
1 x76 ~x75 1 x76 x75 >= 1;
1 x78 ~x77 1 x78 x77 >= 1;
1 x80 ~x79 1 x80 x79 >= 1;
1 x1 ~x2 1 x41 ~x42 1 x1 x2 x41 x42 >= 1;
1 x1 ~x2 1 x43 ~x44 1 x1 x2 x43 x44 >= 1;
1 x1 ~x2 1 x45 ~x46 1 x1 x2 x45 x46 >= 1;
1 x1 ~x2 1 x47 ~x48 1 x1 x2 x47 x48 >= 1;
1 x1 ~x2 1 x49 ~x50 1 x1 x2 x49 x50 >= 1;
1 x1 ~x2 1 x51 ~x52 1 x1 x2 x51 x52 >= 1;
1 x1 ~x2 1 x53 ~x54 1 x1 x2 x53 x54 >= 1;
1 x1 ~x2 1 x55 ~x56 1 x1 x2 x55 x56 >= 1;
1 x1 ~x2 1 x57 ~x58 1 x1 x2 x57 x58 >= 1;
1 x1 ~x2 1 x59 ~x60 1 x1 x2 x59 x60 >= 1;
1 x1 ~x2 1 x61 ~x62 1 x1 x2 x61 x62 >= 1;
1 x1 ~x2 1 x63 ~x64 1 x1 x2 x63 x64 >= 1;
1 x1 ~x2 1 x65 ~x66 1 x1 x2 x65 x66 >= 1;
1 x1 ~x2 1 x67 ~x68 1 x1 x2 x67 x68 >= 1;
1 x1 ~x2 1 x69 ~x70 1 x1 x2 x69 x70 >= 1;
1 x1 ~x2 1 x71 ~x72 1 x1 x2 x71 x72 >= 1;
1 x1 ~x2 1 x73 ~x74 1 x1 x2 x73 x74 >= 1;
1 x1 ~x2 1 x75 ~x76 1 x1 x2 x75 x76 >= 1;
1 x1 ~x2 1 x77 ~x78 1 x1 x2 x77 x78 >= 1;
1 x1 ~x2 1 x79 ~x80 1 x1 x2 x79 x80 >= 1;
1 x3 ~x4 1 x41 ~x42 1 x3 x4 x41 x42 >= 1;
1 x3 ~x4 1 x43 ~x44 1 x3 x4 x43 x44 >= 1;
1 x3 ~x4 1 x45 ~x46 1 x3 x4 x45 x46 >= 1;
1 x3 ~x4 1 x47 ~x48 1 x3 x4 x47 x48 >= 1;
1 x3 ~x4 1 x49 ~x50 1 x3 x4 x49 x50 >= 1;
1 x3 ~x4 1 x51 ~x52 1 x3 x4 x51 x52 >= 1;
1 x3 ~x4 1 x53 ~x54 1 x3 x4 x53 x54 >= 1;
1 x3 ~x4 1 x55 ~x56 1 x3 x4 x55 x56 >= 1;
1 x3 ~x4 1 x57 ~x58 1 x3 x4 x57 x58 >= 1;
1 x3 ~x4 1 x59 ~x60 1 x3 x4 x59 x60 >= 1;
1 x3 ~x4 1 x61 ~x62 1 x3 x4 x61 x62 >= 1;
1 x3 ~x4 1 x63 ~x64 1 x3 x4 x63 x64 >= 1;
1 x3 ~x4 1 x65 ~x66 1 x3 x4 x65 x66 >= 1;
1 x3 ~x4 1 x67 ~x68 1 x3 x4 x67 x68 >= 1;
1 x3 ~x4 1 x69 ~x70 1 x3 x4 x69 x70 >= 1;
1 x3 ~x4 1 x71 ~x72 1 x3 x4 x71 x72 >= 1;
1 x3 ~x4 1 x73 ~x74 1 x3 x4 x73 x74 >= 1;
1 x3 ~x4 1 x75 ~x76 1 x3 x4 x75 x76 >= 1;
1 x3 ~x4 1 x77 ~x78 1 x3 x4 x77 x78 >= 1;
1 x3 ~x4 1 x79 ~x80 1 x3 x4 x79 x80 >= 1;
1 x5 ~x6 1 x41 ~x42 1 x5 x6 x41 x42 >= 1;
1 x5 ~x6 1 x43 ~x44 1 x5 x6 x43 x44 >= 1;
1 x5 ~x6 1 x45 ~x46 1 x5 x6 x45 x46 >= 1;
1 x5 ~x6 1 x47 ~x48 1 x5 x6 x47 x48 >= 1;
1 x5 ~x6 1 x49 ~x50 1 x5 x6 x49 x50 >= 1;
1 x5 ~x6 1 x51 ~x52 1 x5 x6 x51 x52 >= 1;
1 x5 ~x6 1 x53 ~x54 1 x5 x6 x53 x54 >= 1;
1 x5 ~x6 1 x55 ~x56 1 x5 x6 x55 x56 >= 1;
1 x5 ~x6 1 x57 ~x58 1 x5 x6 x57 x58 >= 1;
1 x5 ~x6 1 x59 ~x60 1 x5 x6 x59 x60 >= 1;
1 x5 ~x6 1 x61 ~x62 1 x5 x6 x61 x62 >= 1;
1 x5 ~x6 1 x63 ~x64 1 x5 x6 x63 x64 >= 1;
1 x5 ~x6 1 x65 ~x66 1 x5 x6 x65 x66 >= 1;
1 x5 ~x6 1 x67 ~x68 1 x5 x6 x67 x68 >= 1;
1 x5 ~x6 1 x69 ~x70 1 x5 x6 x69 x70 >= 1;
1 x5 ~x6 1 x71 ~x72 1 x5 x6 x71 x72 >= 1;
1 x5 ~x6 1 x73 ~x74 1 x5 x6 x73 x74 >= 1;
1 x5 ~x6 1 x75 ~x76 1 x5 x6 x75 x76 >= 1;
1 x5 ~x6 1 x77 ~x78 1 x5 x6 x77 x78 >= 1;
1 x5 ~x6 1 x79 ~x80 1 x5 x6 x79 x80 >= 1;
1 x7 ~x8 1 x41 ~x42 1 x7 x8 x41 x42 >= 1;
1 x7 ~x8 1 x43 ~x44 1 x7 x8 x43 x44 >= 1;
1 x7 ~x8 1 x45 ~x46 1 x7 x8 x45 x46 >= 1;
1 x7 ~x8 1 x47 ~x48 1 x7 x8 x47 x48 >= 1;
1 x7 ~x8 1 x49 ~x50 1 x7 x8 x49 x50 >= 1;
1 x7 ~x8 1 x51 ~x52 1 x7 x8 x51 x52 >= 1;
1 x7 ~x8 1 x53 ~x54 1 x7 x8 x53 x54 >= 1;
1 x7 ~x8 1 x55 ~x56 1 x7 x8 x55 x56 >= 1;
1 x7 ~x8 1 x57 ~x58 1 x7 x8 x57 x58 >= 1;
1 x7 ~x8 1 x59 ~x60 1 x7 x8 x59 x60 >= 1;
1 x7 ~x8 1 x61 ~x62 1 x7 x8 x61 x62 >= 1;
1 x7 ~x8 1 x63 ~x64 1 x7 x8 x63 x64 >= 1;
1 x7 ~x8 1 x65 ~x66 1 x7 x8 x65 x66 >= 1;
1 x7 ~x8 1 x67 ~x68 1 x7 x8 x67 x68 >= 1;
1 x7 ~x8 1 x69 ~x70 1 x7 x8 x69 x70 >= 1;
1 x7 ~x8 1 x71 ~x72 1 x7 x8 x71 x72 >= 1;
1 x7 ~x8 1 x73 ~x74 1 x7 x8 x73 x74 >= 1;
1 x7 ~x8 1 x75 ~x76 1 x7 x8 x75 x76 >= 1;
1 x7 ~x8 1 x77 ~x78 1 x7 x8 x77 x78 >= 1;
1 x7 ~x8 1 x79 ~x80 1 x7 x8 x79 x80 >= 1;
1 x9 ~x10 1 x41 ~x42 1 x9 x10 x41 x42 >= 1;
1 x9 ~x10 1 x43 ~x44 1 x9 x10 x43 x44 >= 1;
1 x9 ~x10 1 x45 ~x46 1 x9 x10 x45 x46 >= 1;
1 x9 ~x10 1 x47 ~x48 1 x9 x10 x47 x48 >= 1;
1 x9 ~x10 1 x49 ~x50 1 x9 x10 x49 x50 >= 1;
1 x9 ~x10 1 x51 ~x52 1 x9 x10 x51 x52 >= 1;
1 x9 ~x10 1 x53 ~x54 1 x9 x10 x53 x54 >= 1;
1 x9 ~x10 1 x55 ~x56 1 x9 x10 x55 x56 >= 1;
1 x9 ~x10 1 x57 ~x58 1 x9 x10 x57 x58 >= 1;
1 x9 ~x10 1 x59 ~x60 1 x9 x10 x59 x60 >= 1;
1 x9 ~x10 1 x61 ~x62 1 x9 x10 x61 x62 >= 1;
1 x9 ~x10 1 x63 ~x64 1 x9 x10 x63 x64 >= 1;
1 x9 ~x10 1 x65 ~x66 1 x9 x10 x65 x66 >= 1;
1 x9 ~x10 1 x67 ~x68 1 x9 x10 x67 x68 >= 1;
1 x9 ~x10 1 x69 ~x70 1 x9 x10 x69 x70 >= 1;
1 x9 ~x10 1 x71 ~x72 1 x9 x10 x71 x72 >= 1;
1 x9 ~x10 1 x73 ~x74 1 x9 x10 x73 x74 >= 1;
1 x9 ~x10 1 x75 ~x76 1 x9 x10 x75 x76 >= 1;
1 x9 ~x10 1 x77 ~x78 1 x9 x10 x77 x78 >= 1;
1 x9 ~x10 1 x79 ~x80 1 x9 x10 x79 x80 >= 1;
1 x11 ~x12 1 x41 ~x42 1 x11 x12 x41 x42 >= 1;
1 x11 ~x12 1 x43 ~x44 1 x11 x12 x43 x44 >= 1;
1 x11 ~x12 1 x45 ~x46 1 x11 x12 x45 x46 >= 1;
1 x11 ~x12 1 x47 ~x48 1 x11 x12 x47 x48 >= 1;
1 x11 ~x12 1 x49 ~x50 1 x11 x12 x49 x50 >= 1;
1 x11 ~x12 1 x51 ~x52 1 x11 x12 x51 x52 >= 1;
1 x11 ~x12 1 x53 ~x54 1 x11 x12 x53 x54 >= 1;
1 x11 ~x12 1 x55 ~x56 1 x11 x12 x55 x56 >= 1;
1 x11 ~x12 1 x57 ~x58 1 x11 x12 x57 x58 >= 1;
1 x11 ~x12 1 x59 ~x60 1 x11 x12 x59 x60 >= 1;
1 x11 ~x12 1 x61 ~x62 1 x11 x12 x61 x62 >= 1;
1 x11 ~x12 1 x63 ~x64 1 x11 x12 x63 x64 >= 1;
1 x11 ~x12 1 x65 ~x66 1 x11 x12 x65 x66 >= 1;
1 x11 ~x12 1 x67 ~x68 1 x11 x12 x67 x68 >= 1;
1 x11 ~x12 1 x69 ~x70 1 x11 x12 x69 x70 >= 1;
1 x11 ~x12 1 x71 ~x72 1 x11 x12 x71 x72 >= 1;
1 x11 ~x12 1 x73 ~x74 1 x11 x12 x73 x74 >= 1;
1 x11 ~x12 1 x75 ~x76 1 x11 x12 x75 x76 >= 1;
1 x11 ~x12 1 x77 ~x78 1 x11 x12 x77 x78 >= 1;
1 x11 ~x12 1 x79 ~x80 1 x11 x12 x79 x80 >= 1;
1 x13 ~x14 1 x41 ~x42 1 x13 x14 x41 x42 >= 1;
1 x13 ~x14 1 x43 ~x44 1 x13 x14 x43 x44 >= 1;
1 x13 ~x14 1 x45 ~x46 1 x13 x14 x45 x46 >= 1;
1 x13 ~x14 1 x47 ~x48 1 x13 x14 x47 x48 >= 1;
1 x13 ~x14 1 x49 ~x50 1 x13 x14 x49 x50 >= 1;
1 x13 ~x14 1 x51 ~x52 1 x13 x14 x51 x52 >= 1;
1 x13 ~x14 1 x53 ~x54 1 x13 x14 x53 x54 >= 1;
1 x13 ~x14 1 x55 ~x56 1 x13 x14 x55 x56 >= 1;
1 x13 ~x14 1 x57 ~x58 1 x13 x14 x57 x58 >= 1;
1 x13 ~x14 1 x59 ~x60 1 x13 x14 x59 x60 >= 1;
1 x13 ~x14 1 x61 ~x62 1 x13 x14 x61 x62 >= 1;
1 x13 ~x14 1 x63 ~x64 1 x13 x14 x63 x64 >= 1;
1 x13 ~x14 1 x65 ~x66 1 x13 x14 x65 x66 >= 1;
1 x13 ~x14 1 x67 ~x68 1 x13 x14 x67 x68 >= 1;
1 x13 ~x14 1 x69 ~x70 1 x13 x14 x69 x70 >= 1;
1 x13 ~x14 1 x71 ~x72 1 x13 x14 x71 x72 >= 1;
1 x13 ~x14 1 x73 ~x74 1 x13 x14 x73 x74 >= 1;
1 x13 ~x14 1 x75 ~x76 1 x13 x14 x75 x76 >= 1;
1 x13 ~x14 1 x77 ~x78 1 x13 x14 x77 x78 >= 1;
1 x13 ~x14 1 x79 ~x80 1 x13 x14 x79 x80 >= 1;
1 x15 ~x16 1 x41 ~x42 1 x15 x16 x41 x42 >= 1;
1 x15 ~x16 1 x43 ~x44 1 x15 x16 x43 x44 >= 1;
1 x15 ~x16 1 x45 ~x46 1 x15 x16 x45 x46 >= 1;
1 x15 ~x16 1 x47 ~x48 1 x15 x16 x47 x48 >= 1;
1 x15 ~x16 1 x49 ~x50 1 x15 x16 x49 x50 >= 1;
1 x15 ~x16 1 x51 ~x52 1 x15 x16 x51 x52 >= 1;
1 x15 ~x16 1 x53 ~x54 1 x15 x16 x53 x54 >= 1;
1 x15 ~x16 1 x55 ~x56 1 x15 x16 x55 x56 >= 1;
1 x15 ~x16 1 x57 ~x58 1 x15 x16 x57 x58 >= 1;
1 x15 ~x16 1 x59 ~x60 1 x15 x16 x59 x60 >= 1;
1 x15 ~x16 1 x61 ~x62 1 x15 x16 x61 x62 >= 1;
1 x15 ~x16 1 x63 ~x64 1 x15 x16 x63 x64 >= 1;
1 x15 ~x16 1 x65 ~x66 1 x15 x16 x65 x66 >= 1;
1 x15 ~x16 1 x67 ~x68 1 x15 x16 x67 x68 >= 1;
1 x15 ~x16 1 x69 ~x70 1 x15 x16 x69 x70 >= 1;
1 x15 ~x16 1 x71 ~x72 1 x15 x16 x71 x72 >= 1;
1 x15 ~x16 1 x73 ~x74 1 x15 x16 x73 x74 >= 1;
1 x15 ~x16 1 x75 ~x76 1 x15 x16 x75 x76 >= 1;
1 x15 ~x16 1 x77 ~x78 1 x15 x16 x77 x78 >= 1;
1 x15 ~x16 1 x79 ~x80 1 x15 x16 x79 x80 >= 1;
1 x17 ~x18 1 x41 ~x42 1 x17 x18 x41 x42 >= 1;
1 x17 ~x18 1 x43 ~x44 1 x17 x18 x43 x44 >= 1;
1 x17 ~x18 1 x45 ~x46 1 x17 x18 x45 x46 >= 1;
1 x17 ~x18 1 x47 ~x48 1 x17 x18 x47 x48 >= 1;
1 x17 ~x18 1 x49 ~x50 1 x17 x18 x49 x50 >= 1;
1 x17 ~x18 1 x51 ~x52 1 x17 x18 x51 x52 >= 1;
1 x17 ~x18 1 x53 ~x54 1 x17 x18 x53 x54 >= 1;
1 x17 ~x18 1 x55 ~x56 1 x17 x18 x55 x56 >= 1;
1 x17 ~x18 1 x57 ~x58 1 x17 x18 x57 x58 >= 1;
1 x17 ~x18 1 x59 ~x60 1 x17 x18 x59 x60 >= 1;
1 x17 ~x18 1 x61 ~x62 1 x17 x18 x61 x62 >= 1;
1 x17 ~x18 1 x63 ~x64 1 x17 x18 x63 x64 >= 1;
1 x17 ~x18 1 x65 ~x66 1 x17 x18 x65 x66 >= 1;
1 x17 ~x18 1 x67 ~x68 1 x17 x18 x67 x68 >= 1;
1 x17 ~x18 1 x69 ~x70 1 x17 x18 x69 x70 >= 1;
1 x17 ~x18 1 x71 ~x72 1 x17 x18 x71 x72 >= 1;
1 x17 ~x18 1 x73 ~x74 1 x17 x18 x73 x74 >= 1;
1 x17 ~x18 1 x75 ~x76 1 x17 x18 x75 x76 >= 1;
1 x17 ~x18 1 x77 ~x78 1 x17 x18 x77 x78 >= 1;
1 x17 ~x18 1 x79 ~x80 1 x17 x18 x79 x80 >= 1;
1 x19 ~x20 1 x41 ~x42 1 x19 x20 x41 x42 >= 1;
1 x19 ~x20 1 x43 ~x44 1 x19 x20 x43 x44 >= 1;
1 x19 ~x20 1 x45 ~x46 1 x19 x20 x45 x46 >= 1;
1 x19 ~x20 1 x47 ~x48 1 x19 x20 x47 x48 >= 1;
1 x19 ~x20 1 x49 ~x50 1 x19 x20 x49 x50 >= 1;
1 x19 ~x20 1 x51 ~x52 1 x19 x20 x51 x52 >= 1;
1 x19 ~x20 1 x53 ~x54 1 x19 x20 x53 x54 >= 1;
1 x19 ~x20 1 x55 ~x56 1 x19 x20 x55 x56 >= 1;
1 x19 ~x20 1 x57 ~x58 1 x19 x20 x57 x58 >= 1;
1 x19 ~x20 1 x59 ~x60 1 x19 x20 x59 x60 >= 1;
1 x19 ~x20 1 x61 ~x62 1 x19 x20 x61 x62 >= 1;
1 x19 ~x20 1 x63 ~x64 1 x19 x20 x63 x64 >= 1;
1 x19 ~x20 1 x65 ~x66 1 x19 x20 x65 x66 >= 1;
1 x19 ~x20 1 x67 ~x68 1 x19 x20 x67 x68 >= 1;
1 x19 ~x20 1 x69 ~x70 1 x19 x20 x69 x70 >= 1;
1 x19 ~x20 1 x71 ~x72 1 x19 x20 x71 x72 >= 1;
1 x19 ~x20 1 x73 ~x74 1 x19 x20 x73 x74 >= 1;
1 x19 ~x20 1 x75 ~x76 1 x19 x20 x75 x76 >= 1;
1 x19 ~x20 1 x77 ~x78 1 x19 x20 x77 x78 >= 1;
1 x19 ~x20 1 x79 ~x80 1 x19 x20 x79 x80 >= 1;
1 x21 ~x22 1 x41 ~x42 1 x21 x22 x41 x42 >= 1;
1 x21 ~x22 1 x43 ~x44 1 x21 x22 x43 x44 >= 1;
1 x21 ~x22 1 x45 ~x46 1 x21 x22 x45 x46 >= 1;
1 x21 ~x22 1 x47 ~x48 1 x21 x22 x47 x48 >= 1;
1 x21 ~x22 1 x49 ~x50 1 x21 x22 x49 x50 >= 1;
1 x21 ~x22 1 x51 ~x52 1 x21 x22 x51 x52 >= 1;
1 x21 ~x22 1 x53 ~x54 1 x21 x22 x53 x54 >= 1;
1 x21 ~x22 1 x55 ~x56 1 x21 x22 x55 x56 >= 1;
1 x21 ~x22 1 x57 ~x58 1 x21 x22 x57 x58 >= 1;
1 x21 ~x22 1 x59 ~x60 1 x21 x22 x59 x60 >= 1;
1 x21 ~x22 1 x61 ~x62 1 x21 x22 x61 x62 >= 1;
1 x21 ~x22 1 x63 ~x64 1 x21 x22 x63 x64 >= 1;
1 x21 ~x22 1 x65 ~x66 1 x21 x22 x65 x66 >= 1;
1 x21 ~x22 1 x67 ~x68 1 x21 x22 x67 x68 >= 1;
1 x21 ~x22 1 x69 ~x70 1 x21 x22 x69 x70 >= 1;
1 x21 ~x22 1 x71 ~x72 1 x21 x22 x71 x72 >= 1;
1 x21 ~x22 1 x73 ~x74 1 x21 x22 x73 x74 >= 1;
1 x21 ~x22 1 x75 ~x76 1 x21 x22 x75 x76 >= 1;
1 x21 ~x22 1 x77 ~x78 1 x21 x22 x77 x78 >= 1;
1 x21 ~x22 1 x79 ~x80 1 x21 x22 x79 x80 >= 1;
1 x23 ~x24 1 x41 ~x42 1 x23 x24 x41 x42 >= 1;
1 x23 ~x24 1 x43 ~x44 1 x23 x24 x43 x44 >= 1;
1 x23 ~x24 1 x45 ~x46 1 x23 x24 x45 x46 >= 1;
1 x23 ~x24 1 x47 ~x48 1 x23 x24 x47 x48 >= 1;
1 x23 ~x24 1 x49 ~x50 1 x23 x24 x49 x50 >= 1;
1 x23 ~x24 1 x51 ~x52 1 x23 x24 x51 x52 >= 1;
1 x23 ~x24 1 x53 ~x54 1 x23 x24 x53 x54 >= 1;
1 x23 ~x24 1 x55 ~x56 1 x23 x24 x55 x56 >= 1;
1 x23 ~x24 1 x57 ~x58 1 x23 x24 x57 x58 >= 1;
1 x23 ~x24 1 x59 ~x60 1 x23 x24 x59 x60 >= 1;
1 x23 ~x24 1 x61 ~x62 1 x23 x24 x61 x62 >= 1;
1 x23 ~x24 1 x63 ~x64 1 x23 x24 x63 x64 >= 1;
1 x23 ~x24 1 x65 ~x66 1 x23 x24 x65 x66 >= 1;
1 x23 ~x24 1 x67 ~x68 1 x23 x24 x67 x68 >= 1;
1 x23 ~x24 1 x69 ~x70 1 x23 x24 x69 x70 >= 1;
1 x23 ~x24 1 x71 ~x72 1 x23 x24 x71 x72 >= 1;
1 x23 ~x24 1 x73 ~x74 1 x23 x24 x73 x74 >= 1;
1 x23 ~x24 1 x75 ~x76 1 x23 x24 x75 x76 >= 1;
1 x23 ~x24 1 x77 ~x78 1 x23 x24 x77 x78 >= 1;
1 x23 ~x24 1 x79 ~x80 1 x23 x24 x79 x80 >= 1;
1 x25 ~x26 1 x41 ~x42 1 x25 x26 x41 x42 >= 1;
1 x25 ~x26 1 x43 ~x44 1 x25 x26 x43 x44 >= 1;
1 x25 ~x26 1 x45 ~x46 1 x25 x26 x45 x46 >= 1;
1 x25 ~x26 1 x47 ~x48 1 x25 x26 x47 x48 >= 1;
1 x25 ~x26 1 x49 ~x50 1 x25 x26 x49 x50 >= 1;
1 x25 ~x26 1 x51 ~x52 1 x25 x26 x51 x52 >= 1;
1 x25 ~x26 1 x53 ~x54 1 x25 x26 x53 x54 >= 1;
1 x25 ~x26 1 x55 ~x56 1 x25 x26 x55 x56 >= 1;
1 x25 ~x26 1 x57 ~x58 1 x25 x26 x57 x58 >= 1;
1 x25 ~x26 1 x59 ~x60 1 x25 x26 x59 x60 >= 1;
1 x25 ~x26 1 x61 ~x62 1 x25 x26 x61 x62 >= 1;
1 x25 ~x26 1 x63 ~x64 1 x25 x26 x63 x64 >= 1;
1 x25 ~x26 1 x65 ~x66 1 x25 x26 x65 x66 >= 1;
1 x25 ~x26 1 x67 ~x68 1 x25 x26 x67 x68 >= 1;
1 x25 ~x26 1 x69 ~x70 1 x25 x26 x69 x70 >= 1;
1 x25 ~x26 1 x71 ~x72 1 x25 x26 x71 x72 >= 1;
1 x25 ~x26 1 x73 ~x74 1 x25 x26 x73 x74 >= 1;
1 x25 ~x26 1 x75 ~x76 1 x25 x26 x75 x76 >= 1;
1 x25 ~x26 1 x77 ~x78 1 x25 x26 x77 x78 >= 1;
1 x25 ~x26 1 x79 ~x80 1 x25 x26 x79 x80 >= 1;
1 x27 ~x28 1 x41 ~x42 1 x27 x28 x41 x42 >= 1;
1 x27 ~x28 1 x43 ~x44 1 x27 x28 x43 x44 >= 1;
1 x27 ~x28 1 x45 ~x46 1 x27 x28 x45 x46 >= 1;
1 x27 ~x28 1 x47 ~x48 1 x27 x28 x47 x48 >= 1;
1 x27 ~x28 1 x49 ~x50 1 x27 x28 x49 x50 >= 1;
1 x27 ~x28 1 x51 ~x52 1 x27 x28 x51 x52 >= 1;
1 x27 ~x28 1 x53 ~x54 1 x27 x28 x53 x54 >= 1;
1 x27 ~x28 1 x55 ~x56 1 x27 x28 x55 x56 >= 1;
1 x27 ~x28 1 x57 ~x58 1 x27 x28 x57 x58 >= 1;
1 x27 ~x28 1 x59 ~x60 1 x27 x28 x59 x60 >= 1;
1 x27 ~x28 1 x61 ~x62 1 x27 x28 x61 x62 >= 1;
1 x27 ~x28 1 x63 ~x64 1 x27 x28 x63 x64 >= 1;
1 x27 ~x28 1 x65 ~x66 1 x27 x28 x65 x66 >= 1;
1 x27 ~x28 1 x67 ~x68 1 x27 x28 x67 x68 >= 1;
1 x27 ~x28 1 x69 ~x70 1 x27 x28 x69 x70 >= 1;
1 x27 ~x28 1 x71 ~x72 1 x27 x28 x71 x72 >= 1;
1 x27 ~x28 1 x73 ~x74 1 x27 x28 x73 x74 >= 1;
1 x27 ~x28 1 x75 ~x76 1 x27 x28 x75 x76 >= 1;
1 x27 ~x28 1 x77 ~x78 1 x27 x28 x77 x78 >= 1;
1 x27 ~x28 1 x79 ~x80 1 x27 x28 x79 x80 >= 1;
1 x29 ~x30 1 x41 ~x42 1 x29 x30 x41 x42 >= 1;
1 x29 ~x30 1 x43 ~x44 1 x29 x30 x43 x44 >= 1;
1 x29 ~x30 1 x45 ~x46 1 x29 x30 x45 x46 >= 1;
1 x29 ~x30 1 x47 ~x48 1 x29 x30 x47 x48 >= 1;
1 x29 ~x30 1 x49 ~x50 1 x29 x30 x49 x50 >= 1;
1 x29 ~x30 1 x51 ~x52 1 x29 x30 x51 x52 >= 1;
1 x29 ~x30 1 x53 ~x54 1 x29 x30 x53 x54 >= 1;
1 x29 ~x30 1 x55 ~x56 1 x29 x30 x55 x56 >= 1;
1 x29 ~x30 1 x57 ~x58 1 x29 x30 x57 x58 >= 1;
1 x29 ~x30 1 x59 ~x60 1 x29 x30 x59 x60 >= 1;
1 x29 ~x30 1 x61 ~x62 1 x29 x30 x61 x62 >= 1;
1 x29 ~x30 1 x63 ~x64 1 x29 x30 x63 x64 >= 1;
1 x29 ~x30 1 x65 ~x66 1 x29 x30 x65 x66 >= 1;
1 x29 ~x30 1 x67 ~x68 1 x29 x30 x67 x68 >= 1;
1 x29 ~x30 1 x69 ~x70 1 x29 x30 x69 x70 >= 1;
1 x29 ~x30 1 x71 ~x72 1 x29 x30 x71 x72 >= 1;
1 x29 ~x30 1 x73 ~x74 1 x29 x30 x73 x74 >= 1;
1 x29 ~x30 1 x75 ~x76 1 x29 x30 x75 x76 >= 1;
1 x29 ~x30 1 x77 ~x78 1 x29 x30 x77 x78 >= 1;
1 x29 ~x30 1 x79 ~x80 1 x29 x30 x79 x80 >= 1;
1 x31 ~x32 1 x41 ~x42 1 x31 x32 x41 x42 >= 1;
1 x31 ~x32 1 x43 ~x44 1 x31 x32 x43 x44 >= 1;
1 x31 ~x32 1 x45 ~x46 1 x31 x32 x45 x46 >= 1;
1 x31 ~x32 1 x47 ~x48 1 x31 x32 x47 x48 >= 1;
1 x31 ~x32 1 x49 ~x50 1 x31 x32 x49 x50 >= 1;
1 x31 ~x32 1 x51 ~x52 1 x31 x32 x51 x52 >= 1;
1 x31 ~x32 1 x53 ~x54 1 x31 x32 x53 x54 >= 1;
1 x31 ~x32 1 x55 ~x56 1 x31 x32 x55 x56 >= 1;
1 x31 ~x32 1 x57 ~x58 1 x31 x32 x57 x58 >= 1;
1 x31 ~x32 1 x59 ~x60 1 x31 x32 x59 x60 >= 1;
1 x31 ~x32 1 x61 ~x62 1 x31 x32 x61 x62 >= 1;
1 x31 ~x32 1 x63 ~x64 1 x31 x32 x63 x64 >= 1;
1 x31 ~x32 1 x65 ~x66 1 x31 x32 x65 x66 >= 1;
1 x31 ~x32 1 x67 ~x68 1 x31 x32 x67 x68 >= 1;
1 x31 ~x32 1 x69 ~x70 1 x31 x32 x69 x70 >= 1;
1 x31 ~x32 1 x71 ~x72 1 x31 x32 x71 x72 >= 1;
1 x31 ~x32 1 x73 ~x74 1 x31 x32 x73 x74 >= 1;
1 x31 ~x32 1 x75 ~x76 1 x31 x32 x75 x76 >= 1;
1 x31 ~x32 1 x77 ~x78 1 x31 x32 x77 x78 >= 1;
1 x31 ~x32 1 x79 ~x80 1 x31 x32 x79 x80 >= 1;
1 x33 ~x34 1 x41 ~x42 1 x33 x34 x41 x42 >= 1;
1 x33 ~x34 1 x43 ~x44 1 x33 x34 x43 x44 >= 1;
1 x33 ~x34 1 x45 ~x46 1 x33 x34 x45 x46 >= 1;
1 x33 ~x34 1 x47 ~x48 1 x33 x34 x47 x48 >= 1;
1 x33 ~x34 1 x49 ~x50 1 x33 x34 x49 x50 >= 1;
1 x33 ~x34 1 x51 ~x52 1 x33 x34 x51 x52 >= 1;
1 x33 ~x34 1 x53 ~x54 1 x33 x34 x53 x54 >= 1;
1 x33 ~x34 1 x55 ~x56 1 x33 x34 x55 x56 >= 1;
1 x33 ~x34 1 x57 ~x58 1 x33 x34 x57 x58 >= 1;
1 x33 ~x34 1 x59 ~x60 1 x33 x34 x59 x60 >= 1;
1 x33 ~x34 1 x61 ~x62 1 x33 x34 x61 x62 >= 1;
1 x33 ~x34 1 x63 ~x64 1 x33 x34 x63 x64 >= 1;
1 x33 ~x34 1 x65 ~x66 1 x33 x34 x65 x66 >= 1;
1 x33 ~x34 1 x67 ~x68 1 x33 x34 x67 x68 >= 1;
1 x33 ~x34 1 x69 ~x70 1 x33 x34 x69 x70 >= 1;
1 x33 ~x34 1 x71 ~x72 1 x33 x34 x71 x72 >= 1;
1 x33 ~x34 1 x73 ~x74 1 x33 x34 x73 x74 >= 1;
1 x33 ~x34 1 x75 ~x76 1 x33 x34 x75 x76 >= 1;
1 x33 ~x34 1 x77 ~x78 1 x33 x34 x77 x78 >= 1;
1 x33 ~x34 1 x79 ~x80 1 x33 x34 x79 x80 >= 1;
1 x35 ~x36 1 x41 ~x42 1 x35 x36 x41 x42 >= 1;
1 x35 ~x36 1 x43 ~x44 1 x35 x36 x43 x44 >= 1;
1 x35 ~x36 1 x45 ~x46 1 x35 x36 x45 x46 >= 1;
1 x35 ~x36 1 x47 ~x48 1 x35 x36 x47 x48 >= 1;
1 x35 ~x36 1 x49 ~x50 1 x35 x36 x49 x50 >= 1;
1 x35 ~x36 1 x51 ~x52 1 x35 x36 x51 x52 >= 1;
1 x35 ~x36 1 x53 ~x54 1 x35 x36 x53 x54 >= 1;
1 x35 ~x36 1 x55 ~x56 1 x35 x36 x55 x56 >= 1;
1 x35 ~x36 1 x57 ~x58 1 x35 x36 x57 x58 >= 1;
1 x35 ~x36 1 x59 ~x60 1 x35 x36 x59 x60 >= 1;
1 x35 ~x36 1 x61 ~x62 1 x35 x36 x61 x62 >= 1;
1 x35 ~x36 1 x63 ~x64 1 x35 x36 x63 x64 >= 1;
1 x35 ~x36 1 x65 ~x66 1 x35 x36 x65 x66 >= 1;
1 x35 ~x36 1 x67 ~x68 1 x35 x36 x67 x68 >= 1;
1 x35 ~x36 1 x69 ~x70 1 x35 x36 x69 x70 >= 1;
1 x35 ~x36 1 x71 ~x72 1 x35 x36 x71 x72 >= 1;
1 x35 ~x36 1 x73 ~x74 1 x35 x36 x73 x74 >= 1;
1 x35 ~x36 1 x75 ~x76 1 x35 x36 x75 x76 >= 1;
1 x35 ~x36 1 x77 ~x78 1 x35 x36 x77 x78 >= 1;
1 x35 ~x36 1 x79 ~x80 1 x35 x36 x79 x80 >= 1;
1 x37 ~x38 1 x41 ~x42 1 x37 x38 x41 x42 >= 1;
1 x37 ~x38 1 x43 ~x44 1 x37 x38 x43 x44 >= 1;
1 x37 ~x38 1 x45 ~x46 1 x37 x38 x45 x46 >= 1;
1 x37 ~x38 1 x47 ~x48 1 x37 x38 x47 x48 >= 1;
1 x37 ~x38 1 x49 ~x50 1 x37 x38 x49 x50 >= 1;
1 x37 ~x38 1 x51 ~x52 1 x37 x38 x51 x52 >= 1;
1 x37 ~x38 1 x53 ~x54 1 x37 x38 x53 x54 >= 1;
1 x37 ~x38 1 x55 ~x56 1 x37 x38 x55 x56 >= 1;
1 x37 ~x38 1 x57 ~x58 1 x37 x38 x57 x58 >= 1;
1 x37 ~x38 1 x59 ~x60 1 x37 x38 x59 x60 >= 1;
1 x37 ~x38 1 x61 ~x62 1 x37 x38 x61 x62 >= 1;
1 x37 ~x38 1 x63 ~x64 1 x37 x38 x63 x64 >= 1;
1 x37 ~x38 1 x65 ~x66 1 x37 x38 x65 x66 >= 1;
1 x37 ~x38 1 x67 ~x68 1 x37 x38 x67 x68 >= 1;
1 x37 ~x38 1 x69 ~x70 1 x37 x38 x69 x70 >= 1;
1 x37 ~x38 1 x71 ~x72 1 x37 x38 x71 x72 >= 1;
1 x37 ~x38 1 x73 ~x74 1 x37 x38 x73 x74 >= 1;
1 x37 ~x38 1 x75 ~x76 1 x37 x38 x75 x76 >= 1;
1 x37 ~x38 1 x77 ~x78 1 x37 x38 x77 x78 >= 1;
1 x37 ~x38 1 x79 ~x80 1 x37 x38 x79 x80 >= 1;
1 x39 ~x40 1 x41 ~x42 1 x39 x40 x41 x42 >= 1;
1 x39 ~x40 1 x43 ~x44 1 x39 x40 x43 x44 >= 1;
1 x39 ~x40 1 x45 ~x46 1 x39 x40 x45 x46 >= 1;
1 x39 ~x40 1 x47 ~x48 1 x39 x40 x47 x48 >= 1;
1 x39 ~x40 1 x49 ~x50 1 x39 x40 x49 x50 >= 1;
1 x39 ~x40 1 x51 ~x52 1 x39 x40 x51 x52 >= 1;
1 x39 ~x40 1 x53 ~x54 1 x39 x40 x53 x54 >= 1;
1 x39 ~x40 1 x55 ~x56 1 x39 x40 x55 x56 >= 1;
1 x39 ~x40 1 x57 ~x58 1 x39 x40 x57 x58 >= 1;
1 x39 ~x40 1 x59 ~x60 1 x39 x40 x59 x60 >= 1;
1 x39 ~x40 1 x61 ~x62 1 x39 x40 x61 x62 >= 1;
1 x39 ~x40 1 x63 ~x64 1 x39 x40 x63 x64 >= 1;
1 x39 ~x40 1 x65 ~x66 1 x39 x40 x65 x66 >= 1;
1 x39 ~x40 1 x67 ~x68 1 x39 x40 x67 x68 >= 1;
1 x39 ~x40 1 x69 ~x70 1 x39 x40 x69 x70 >= 1;
1 x39 ~x40 1 x71 ~x72 1 x39 x40 x71 x72 >= 1;
1 x39 ~x40 1 x73 ~x74 1 x39 x40 x73 x74 >= 1;
1 x39 ~x40 1 x75 ~x76 1 x39 x40 x75 x76 >= 1;
1 x39 ~x40 1 x77 ~x78 1 x39 x40 x77 x78 >= 1;
1 x39 ~x40 1 x79 ~x80 1 x39 x40 x79 x80 >= 1;
